\* paris_problem_q2a_p1 *\
Maximize
amount_of_locations_to_be_maximized: AT_AC + BS + CA + CP_CN_SC_ML + MO_JT_PC
 + TE + TM
Subject To
budget_constraint: 9.5 AT_AC + 8 BS + 10 CA + 35.5 CP_CN_SC_ML + 11 MO_JT_PC
 + 15.5 TE + 15 TM <= 65
time_constraint: 2.5 AT_AC + 2 BS + 2 CA + 9 CP_CN_SC_ML + 4.25 MO_JT_PC
 + 4.5 TE + 2 TM <= 12
Binaries
AT_AC
BS
CA
CP_CN_SC_ML
MO_JT_PC
TE
TM
End
